(declare-fun X_0 () Real)
(declare-fun X_1 () Real)
(declare-fun Y_0 () Real)
(declare-fun Y_1 () Real)
(assert (<= (* 1.0 X_0) 10.0))
(assert (<= (* -1.0 X_0) -8.1))
(assert (<= (* 1.0 X_1) 7.9))
(assert (<= (* -1.0 X_1) -6.0))
(assert (<= (+ (* -1.0 Y_0) (* 1.0 Y_1)) 0.0))
